c graph3
p edge 20 42
e 1 14
e 2 7
e 3 6
e 4 3
e 5 10
e 6 13
e 7 9
e 8 15
e 9 19
e 10 13
e 11 9
e 12 10
e 13 19
e 14 20
e 15 14
e 16 11
e 17 14
e 18 3
e 19 6
e 20 12
e 9 6
e 19 4
e 14 12
e 13 7
e 6 12
e 4 1
e 17 11
e 4 8
e 11 4
e 17 20
e 13 2
e 9 20
e 9 8
e 1 20
e 16 3
e 7 1
e 10 14
e 13 11
e 2 20
e 17 16
e 9 15
e 18 4
